
  32    4
  10   10   10   10

   0   0   0   0   0  11 2 3 5 7 8 11 18 28 29 30 31 
   9  10  10  10  10   9 27 25 24 23 14 13 10 9 6 
   8  10  10  10  10   4 26 23 9 4 
   3  10  10  10  10   1 6 
   5  10  10  10  10   5 24 23 22 21 17 
   6  10  10  10  10   4 22 21 20 12 
  10  10  10  10  10   3 20 15 12 
   9  10  10  10  10   2 22 13 
   5  10  10  10  10   2 21 16 
   9  10  10  10  10   2 20 15 
   5  10  10  10  10   1 13 
   9  10  10  10  10   1 16 
   7  10  10  10  10   1 15 
   3  10  10  10  10   1 15 
   9  10  10  10  10   1 19 
   4  10  10  10  10   1 19 
   1  10  10  10  10   1 20 
   5  10  10  10  10   1 20 
   7  10  10  10  10   1 32
   3  10  10  10  10   1 32
   8  10  10  10  10   1 32
  10  10  10  10  10   1 32
   6  10  10  10  10   1 32
   7  10  10  10  10   1 32
   2  10  10  10  10   1 32
   6  10  10  10  10   1 32
   5  10  10  10  10   1 32
   8  10  10  10  10   1 32
   2  10  10  10  10   1 32
   1  10  10  10  10   1 32
   5  10  10  10  10   1 32
   0   0   0   0   0   0 
